NAME: typeset.10835.26.sop
COMMENT: Received by Ghassan Shobaki
DIMENSION: 28
TYPE: SOP
EDGE_WEIGHT_TYPE: EXPLICIT
EDGE_WEIGHT_FORMAT: FULL_MATRIX
EDGE_WEIGHT_SECTION
28
0   0   0   0   0   0   0   0   0   0   0   0   0   0   0   0   0   0   0   0   0   0   0   0   0   0   0   34  
-1  0   10  10  10  5   8   13  11  3   9   12  4   5   4   5   4   5   7   5   6   7   7   7   9   7   4   0   
-1  -1  0   4   8   9   2   7   9   11  3   6   12  13  12  13  12  13  13  13  14  13  13  13  5   13  12  0   
-1  -1  4   0   8   9   4   7   9   11  3   6   12  13  12  13  12  13  13  13  14  13  13  13  3   13  12  0   
-1  -1  -1  -1  0   9   8   5   1   11  7   4   12  11  12  11  12  11  13  13  12  13  13  13  7   13  12  0   
-1  5   -1  -1  -1  0   9   12  10  8   10  11  9   8   9   8   9   8   12  10  9   12  12  12  10  12  9   0   
-1  8   2   4   8   -1  0   9   9   9   1   8   10  11  10  11  10  11  11  11  12  11  11  11  3   11  10  0   
-1  13  7   7   5   -1  9   0   4   14  8   1   15  14  15  14  15  14  16  16  15  16  16  16  6   16  13  0   
-1  11  9   9   1   -1  -1  -1  0   12  8   5   13  12  13  12  13  12  14  14  13  14  14  14  8   14  13  0   
-1  3   11  11  11  8   9   14  -1  0   10  13  3   4   3   4   3   4   4   4   5   4   4   4   10  4   7   0   
-1  9   3   3   7   -1  1   8   8   -1  0   7   11  12  11  12  11  12  12  12  13  12  12  12  2   12  11  0   
-1  12  6   6   4   -1  8   1   -1  -1  7   0   14  13  14  13  14  13  15  15  14  15  15  15  5   15  12  0   
-1  4   12  12  12  9   10  15  13  3   11  14  0   1   4   5   2   3   7   3   4   7   7   7   11  7   6   0   
-1  5   13  13  11  8   11  14  12  4   12  13  -1  0   5   4   3   2   8   4   3   8   8   8   12  8   7   0   
-1  4   12  12  12  9   10  15  13  3   11  14  4   5   0   1   2   3   7   1   2   7   7   7   11  7   6   0   
-1  5   13  13  11  8   11  14  12  4   12  13  5   4   -1  0   3   2   8   2   1   8   8   8   12  8   7   0   
-1  4   12  12  12  9   10  15  13  3   11  14  2   3   2   3   0   1   7   3   4   7   7   7   11  7   6   0   
-1  5   13  13  11  8   11  14  12  4   12  13  3   2   3   2   -1  0   8   4   3   8   8   8   12  8   7   0   
-1  7   13  13  13  12  11  16  14  4   12  15  7   8   7   8   7   8   0   8   9   0   0   0   12  0   9   0   
-1  5   13  13  13  10  11  16  14  4   12  15  3   4   1   2   3   4   8   0   1   8   8   8   12  8   7   0   
-1  6   14  14  12  9   12  15  13  5   13  14  4   3   2   1   4   3   9   -1  0   9   9   9   13  9   8   0   
-1  7   13  13  13  12  11  16  14  4   12  15  7   8   7   8   7   8   0   8   9   0   0   0   12  0   9   0   
-1  7   13  13  13  12  11  16  14  4   12  15  7   8   7   8   7   8   0   8   9   0   0   0   12  0   9   0   
-1  7   13  13  13  12  11  16  14  -1  -1  -1  7   8   7   8   7   8   0   8   9   0   0   0   12  0   9   0   
-1  9   5   3   7   -1  3   6   8   10  2   5   11  12  11  12  11  12  12  12  13  12  12  -1  0   12  9   0   
-1  7   13  13  13  12  11  16  14  4   12  15  7   8   7   8   7   8   0   8   9   0   0   0   12  0   9   0   
-1  4   12  12  12  9   10  13  13  7   11  12  6   7   6   7   6   7   9   7   8   9   9   9   9   9   0   0   
-1  -1  -1  -1  -1  -1  -1  -1  -1  -1  -1  -1  -1  -1  -1  -1  -1  -1  -1  -1  -1  -1  -1  -1  -1  -1  -1  0   
EOF